
n_res = 6;
rcap = [20, 18, 18, 20, 792, 842];
rtype = [1, 1, 1, 1, 2, 2];
n_tasks = 50;
modes =  [{1, 2, 3}, {4, 5, 6}, {7, 8, 9}, {10, 11, 12}, {13, 14, 15}, {16, 17, 18}, {19, 20, 21}, {22, 23, 24}, {25, 26, 27}, {28, 29, 30}, {31, 32, 33}, {34, 35, 36}, {37, 38, 39}, {40, 41, 42}, {43, 44, 45}, {46, 47, 48}, {49, 50, 51}, {52, 53, 54}, {55, 56, 57}, {58, 59, 60}, {61, 62, 63}, {64, 65, 66}, {67, 68, 69}, {70, 71, 72}, {73, 74, 75}, {76, 77, 78}, {79, 80, 81}, {82, 83, 84}, {85, 86, 87}, {88, 89, 90}, {91, 92, 93}, {94, 95, 96}, {97, 98, 99}, {100, 101, 102}, {103, 104, 105}, {106, 107, 108}, {109, 110, 111}, {112, 113, 114}, {115, 116, 117}, {118, 119, 120}, {121, 122, 123}, {124, 125, 126}, {127, 128, 129}, {130, 131, 132}, {133, 134, 135}, {136, 137, 138}, {139, 140, 141}, {142, 143, 144}, {145, 146, 147}, {148, 149, 150}];
succ =  [{13, 12, 9, 8, 2}, {15, 14, 6}, {14, 13, 9}, {15, 14, 7}, {15, 6}, {23, 21, 19, 18, 17, 16}, {23, 21, 19, 18, 17, 16}, {23, 21, 19, 18, 17, 16}, {29, 23, 18, 15}, {29, 23, 18, 15}, {29, 26, 23, 22, 21, 19, 17}, {29, 23, 15}, {29, 23, 21, 20, 18, 17}, {26, 22, 21, 19, 17}, {26, 24, 22, 21, 19}, {29, 28, 26, 24, 22}, {31, 30, 28, 27, 25, 24}, {34, 30, 28, 25, 22}, {38, 31, 25, 20}, {34, 33, 30, 28}, {38, 34, 30, 27}, {38, 33, 27}, {33, 30, 27}, {41, 38, 34, 32}, {41, 35, 33, 32}, {46, 41, 38, 30}, {41, 39, 35, 32}, {41, 39, 35, 32}, {41, 39, 35, 32}, {39, 37, 36, 35}, {39, 37, 36, 35}, {46, 37, 36}, {44, 43, 40, 39}, {39, 35}, {50, 44, 43, 42}, {43, 42, 40}, {43, 42, 40}, {44, 43, 42}, {50, 45, 42}, {50, 49, 48, 45}, {50, 42}, {49, 48, 47}, {49, 45}, {48, 45}, {47}, {50}, {}, {}, {}, {}];
n_opt = 150;
dur = [5, 12, 18, 8, 17, 23, 13, 17, 18, 13, 20, 30, 3, 8, 26, 13, 16, 17, 17, 21, 28, 26, 27, 29, 12, 13, 29, 17, 18, 30, 12, 13, 30, 3, 6, 14, 19, 24, 25, 2, 13, 21, 11, 19, 28, 11, 19, 21, 27, 28, 29, 7, 10, 14, 2, 7, 15, 8, 22, 23, 3, 4, 27, 7, 27, 28, 16, 17, 23, 6, 7, 16, 2, 13, 27, 7, 17, 19, 11, 15, 19, 15, 21, 22, 5, 15, 24, 3, 20, 27, 4, 6, 19, 6, 22, 24, 1, 2, 10, 6, 25, 30, 2, 10, 21, 20, 27, 28, 3, 4, 5, 18, 22, 30, 8, 21, 22, 3, 13, 18, 2, 12, 23, 13, 25, 27, 4, 14, 28, 19, 20, 30, 21, 22, 23, 14, 18, 27, 8, 22, 25, 7, 15, 29, 8, 10, 14, 3, 15, 26];
rreq = [|4, 4, 3, 4, 2, 2, 4, 4, 4, 3, 3, 2, 3, 3, 3, 5, 3, 3, 3, 3, 3, 4, 3, 3, 4, 4, 2, 3, 1, 1, 2, 1, 1, 2, 1, 1, 3, 3, 3, 3, 2, 2, 3, 2, 2, 3, 3, 3, 3, 1, 1, 4, 4, 4, 2, 2, 1, 5, 4, 4, 3, 2, 1, 5, 4, 4, 3, 3, 3, 3, 2, 2, 4, 3, 3, 3, 2, 1, 2, 1, 1, 2, 2, 1, 4, 3, 3, 2, 2, 2, 2, 1, 1, 1, 1, 1, 4, 4, 4, 4, 3, 3, 4, 4, 4, 1, 1, 1, 4, 4, 4, 5, 3, 3, 5, 4, 3, 3, 2, 2, 4, 4, 3, 2, 2, 1, 2, 2, 2, 3, 3, 3, 1, 1, 1, 4, 3, 2, 4, 3, 3, 3, 3, 3, 4, 3, 3, 4, 4, 4
 |4, 2, 2, 3, 2, 2, 4, 4, 3, 4, 2, 1, 1, 1, 1, 5, 5, 5, 4, 4, 3, 4, 3, 2, 2, 2, 1, 1, 1, 1, 3, 3, 3, 4, 4, 3, 1, 1, 1, 4, 3, 2, 4, 3, 1, 2, 2, 1, 3, 2, 2, 5, 5, 5, 5, 3, 3, 1, 1, 1, 3, 3, 3, 4, 2, 2, 5, 2, 2, 3, 2, 2, 4, 2, 2, 5, 3, 3, 5, 4, 4, 3, 3, 3, 3, 3, 3, 3, 3, 3, 5, 3, 1, 4, 4, 4, 2, 2, 2, 3, 2, 1, 1, 1, 1, 4, 2, 2, 5, 4, 4, 4, 3, 2, 5, 4, 4, 3, 3, 1, 4, 3, 3, 4, 4, 4, 4, 2, 1, 3, 2, 1, 5, 4, 2, 4, 4, 4, 3, 2, 2, 2, 2, 1, 4, 4, 4, 1, 1, 1
 |2, 2, 2, 5, 4, 4, 2, 2, 2, 4, 4, 2, 4, 4, 4, 3, 3, 3, 3, 2, 2, 2, 1, 1, 4, 4, 4, 2, 2, 2, 3, 3, 3, 4, 3, 3, 4, 4, 4, 5, 3, 3, 3, 2, 2, 1, 1, 1, 3, 2, 2, 3, 2, 1, 4, 4, 4, 2, 2, 2, 3, 2, 1, 3, 3, 2, 3, 1, 1, 3, 3, 1, 4, 3, 3, 3, 3, 3, 4, 2, 2, 3, 3, 2, 4, 3, 3, 3, 2, 2, 4, 4, 4, 2, 1, 1, 5, 5, 5, 5, 4, 4, 4, 4, 4, 4, 3, 3, 5, 2, 2, 4, 3, 1, 3, 2, 2, 1, 1, 1, 2, 1, 1, 3, 2, 2, 2, 2, 2, 3, 2, 1, 5, 4, 4, 3, 3, 1, 2, 1, 1, 4, 3, 3, 4, 3, 2, 3, 1, 1
 |1, 1, 1, 4, 4, 4, 3, 3, 3, 4, 4, 4, 3, 3, 3, 4, 4, 4, 5, 5, 5, 4, 3, 2, 3, 2, 2, 3, 2, 2, 4, 4, 2, 4, 3, 3, 4, 3, 2, 1, 1, 1, 5, 5, 5, 4, 4, 4, 5, 5, 5, 2, 2, 2, 5, 3, 2, 4, 2, 2, 3, 2, 2, 4, 4, 4, 3, 2, 2, 5, 3, 3, 2, 1, 1, 4, 3, 3, 4, 2, 2, 3, 3, 3, 3, 2, 2, 3, 3, 3, 2, 2, 2, 1, 1, 1, 3, 2, 2, 3, 3, 3, 4, 4, 4, 3, 2, 2, 3, 3, 1, 5, 3, 2, 5, 3, 1, 3, 3, 3, 5, 3, 3, 4, 4, 4, 5, 5, 5, 3, 3, 3, 5, 5, 5, 3, 3, 1, 4, 4, 4, 4, 3, 2, 4, 4, 4, 5, 4, 2
 |5, 4, 4, 20, 18, 7, 28, 20, 12, 17, 11, 8, 18, 13, 10, 18, 13, 6, 2, 1, 1, 21, 20, 11, 10, 7, 4, 23, 21, 19, 8, 6, 5, 17, 16, 14, 14, 5, 4, 9, 6, 6, 21, 20, 17, 26, 26, 26, 19, 9, 7, 21, 13, 6, 14, 11, 6, 16, 15, 15, 12, 9, 6, 15, 13, 5, 9, 8, 6, 9, 9, 5, 11, 8, 5, 17, 16, 13, 19, 16, 8, 24, 11, 6, 20, 19, 19, 19, 17, 16, 10, 10, 5, 29, 29, 28, 21, 11, 8, 23, 17, 13, 19, 19, 18, 20, 19, 19, 27, 23, 21, 21, 14, 11, 27, 25, 24, 17, 17, 8, 20, 13, 11, 28, 24, 21, 9, 8, 7, 10, 8, 6, 29, 26, 24, 11, 11, 11, 21, 15, 10, 27, 22, 19, 7, 5, 5, 13, 9, 9
 |20, 17, 15, 24, 20, 7, 28, 15, 4, 7, 5, 3, 15, 10, 7, 15, 14, 13, 23, 20, 12, 28, 25, 21, 20, 16, 8, 17, 8, 3, 19, 11, 7, 24, 20, 17, 18, 13, 5, 17, 13, 9, 27, 26, 26, 24, 20, 14, 24, 17, 15, 16, 12, 12, 28, 21, 17, 4, 4, 3, 22, 17, 9, 23, 16, 14, 6, 5, 3, 13, 9, 5, 17, 11, 8, 24, 21, 14, 5, 3, 3, 12, 12, 12, 17, 16, 15, 23, 22, 20, 23, 19, 10, 27, 25, 20, 13, 7, 4, 13, 13, 13, 4, 3, 3, 27, 21, 17, 8, 8, 7, 13, 8, 7, 24, 21, 19, 18, 17, 5, 23, 14, 6, 14, 7, 1, 14, 8, 4, 12, 11, 10, 21, 14, 8, 27, 25, 24, 21, 21, 18, 30, 29, 28, 15, 11, 10, 29, 28, 26|];